Geographic Exponential Decay
20 22 217 124 132 175 14 120 5 206 259 16 260 148 299 286 261 65 136 100 143
p edge 320 626
e 0 110 3.0
e 1 135 2.0
e 2 10 2.0
e 3 309 1.0
e 4 293 2.0
e 5 128 93.0
e 5 14 70.0
e 5 157 88.0
e 5 76 60.0
e 5 170 3.0
e 5 256 77.0
e 5 188 33.0
e 5 21 60.0
e 5 299 17.0
e 5 110 16.0
e 5 302 87.0
e 5 109 96.0
e 5 300 19.0
e 5 166 5.0
e 5 180 21.0
e 5 116 59.0
e 5 239 89.0
e 6 297 1.0
e 6 99 3.0
e 7 247 3.0
e 8 225 4.0
e 8 89 2.0
e 9 235 1.0
e 11 118 2.0
e 12 112 3.0
e 13 56 1.0
e 14 284 36.0
e 14 187 14.0
e 14 301 59.0
e 14 232 71.0
e 14 180 74.0
e 14 281 14.0
e 14 136 32.0
e 14 231 14.0
e 14 58 93.0
e 14 262 15.0
e 14 63 89.0
e 14 159 59.0
e 14 148 77.0
e 14 22 100.0
e 14 307 32.0
e 14 69 71.0
e 15 219 1.0
e 16 299 42.0
e 16 172 9.0
e 16 292 100.0
e 16 98 68.0
e 16 2 6.0
e 16 315 76.0
e 16 114 46.0
e 16 170 73.0
e 16 271 6.0
e 16 196 50.0
e 16 73 11.0
e 16 307 98.0
e 16 22 2.0
e 16 240 90.0
e 16 34 15.0
e 16 199 79.0
e 16 250 83.0
e 17 223 5.0
e 17 218 4.0
e 18 101 1.0
e 19 292 11.0
e 19 282 3.0
e 19 213 3.0
e 20 231 1.0
e 21 35 1.0
e 22 148 57.0
e 22 110 48.0
e 22 149 1.0
e 22 274 73.0
e 22 9 48.0
e 22 174 11.0
e 22 294 77.0
e 22 283 50.0
e 22 71 74.0
e 22 305 49.0
e 22 239 32.0
e 22 4 88.0
e 22 57 40.0
e 22 194 60.0
e 22 91 28.0
e 23 86 10.0
e 23 313 6.0
e 23 251 5.0
e 24 213 1.0
e 25 236 9.0
e 25 247 22.0
e 25 78 23.0
e 25 68 20.0
e 25 307 13.0
e 26 35 3.0
e 27 65 18.0
e 27 2 5.0
e 28 111 8.0
e 28 21 2.0
e 29 306 1.0
e 30 5 96.0
e 30 159 5.0
e 31 277 1.0
e 32 53 5.0
e 32 239 1.0
e 33 226 19.0
e 33 101 3.0
e 34 128 6.0
e 36 154 1.0
e 36 31 3.0
e 37 116 19.0
e 37 250 3.0
e 37 110 19.0
e 37 128 9.0
e 37 20 4.0
e 38 143 20.0
e 39 118 2.0
e 40 56 1.0
e 40 162 6.0
e 40 4 9.0
e 41 269 5.0
e 41 22 19.0
e 42 306 1.0
e 42 120 86.0
e 43 58 1.0
e 44 234 5.0
e 44 137 6.0
e 45 249 1.0
e 46 214 3.0
e 47 295 1.0
e 47 60 3.0
e 48 233 1.0
e 49 124 41.0
e 49 157 4.0
e 50 85 2.0
e 50 273 1.0
e 51 224 1.0
e 51 197 3.0
e 52 182 1.0
e 53 145 1.0
e 54 248 13.0
e 54 128 16.0
e 54 100 47.0
e 54 145 20.0
e 54 281 12.0
e 55 89 8.0
e 55 318 1.0
e 55 108 5.0
e 58 217 94.0
e 59 44 3.0
e 59 51 6.0
e 59 196 18.0
e 61 86 2.0
e 62 268 2.0
e 62 313 5.0
e 62 229 1.0
e 63 57 4.0
e 63 59 3.0
e 64 141 1.0
e 65 138 38.0
e 65 257 74.0
e 65 127 83.0
e 65 25 82.0
e 65 204 69.0
e 65 5 40.0
e 65 197 97.0
e 65 292 89.0
e 65 222 13.0
e 65 145 4.0
e 65 167 33.0
e 65 20 74.0
e 65 89 94.0
e 65 156 34.0
e 65 77 4.0
e 65 296 43.0
e 66 93 2.0
e 66 48 5.0
e 67 1 2.0
e 67 2 10.0
e 67 283 11.0
e 68 246 3.0
e 68 79 1.0
e 69 114 1.0
e 70 253 3.0
e 70 268 3.0
e 70 139 8.0
e 72 139 1.0
e 74 147 1.0
e 75 43 1.0
e 75 52 6.0
e 80 226 45.0
e 80 54 11.0
e 80 262 8.0
e 80 232 13.0
e 80 264 13.0
e 81 251 1.0
e 81 313 5.0
e 82 141 2.0
e 83 78 1.0
e 84 63 5.0
e 84 202 1.0
e 84 176 2.0
e 85 276 2.0
e 87 204 6.0
e 88 271 2.0
e 90 13 5.0
e 90 107 2.0
e 92 278 10.0
e 92 138 1.0
e 92 176 1.0
e 93 218 7.0
e 94 219 1.0
e 95 241 1.0
e 96 89 1.0
e 97 98 4.0
e 97 170 11.0
e 99 100 64.0
e 100 11 65.0
e 100 275 58.0
e 100 168 59.0
e 100 129 32.0
e 100 263 98.0
e 100 159 74.0
e 100 101 23.0
e 100 281 66.0
e 100 137 36.0
e 100 206 83.0
e 100 203 37.0
e 100 299 11.0
e 100 221 100.0
e 100 41 76.0
e 100 185 32.0
e 102 249 1.0
e 103 294 8.0
e 103 297 5.0
e 103 146 20.0
e 103 58 5.0
e 103 223 19.0
e 104 163 43.0
e 104 164 3.0
e 105 110 1.0
e 105 101 3.0
e 106 306 1.0
e 108 22 61.0
e 111 315 3.0
e 111 55 9.0
e 112 153 3.0
e 113 41 4.0
e 113 11 7.0
e 113 199 1.0
e 115 172 1.0
e 117 189 2.0
e 117 288 4.0
e 119 73 1.0
e 120 214 44.0
e 120 292 12.0
e 120 111 39.0
e 120 189 42.0
e 120 227 71.0
e 120 113 42.0
e 120 34 80.0
e 120 165 27.0
e 120 55 62.0
e 120 271 94.0
e 120 96 99.0
e 120 187 15.0
e 120 261 74.0
e 120 245 44.0
e 120 231 12.0
e 120 35 1.0
e 121 162 4.0
e 121 16 44.0
e 122 154 2.0
e 123 239 1.0
e 124 226 41.0
e 124 68 81.0
e 124 229 45.0
e 124 80 46.0
e 124 312 81.0
e 124 169 58.0
e 124 249 54.0
e 124 241 23.0
e 124 32 85.0
e 124 20 96.0
e 124 196 70.0
e 124 279 13.0
e 124 149 35.0
e 124 132 52.0
e 124 186 3.0
e 124 204 97.0
e 125 194 3.0
e 126 251 9.0
e 126 279 11.0
e 126 268 5.0
e 127 146 12.0
e 127 61 6.0
e 130 45 1.0
e 130 148 37.0
e 131 179 6.0
e 131 229 5.0
e 132 0 92.0
e 132 258 19.0
e 132 237 37.0
e 132 261 95.0
e 132 16 87.0
e 132 33 41.0
e 132 170 36.0
e 132 246 89.0
e 132 67 54.0
e 132 144 88.0
e 132 214 24.0
e 132 195 14.0
e 132 46 28.0
e 132 126 75.0
e 132 294 100.0
e 132 80 95.0
e 133 138 2.0
e 134 200 2.0
e 136 318 51.0
e 136 202 30.0
e 136 117 23.0
e 136 251 33.0
e 136 114 56.0
e 136 190 25.0
e 136 239 74.0
e 136 69 33.0
e 136 312 1.0
e 136 286 55.0
e 136 294 23.0
e 136 41 85.0
e 136 274 84.0
e 136 271 7.0
e 136 47 29.0
e 136 210 58.0
e 140 92 6.0
e 142 64 1.0
e 143 313 38.0
e 143 10 37.0
e 143 34 39.0
e 143 300 82.0
e 143 53 36.0
e 143 196 79.0
e 143 276 39.0
e 143 275 90.0
e 143 48 48.0
e 143 60 11.0
e 143 237 87.0
e 143 54 70.0
e 143 206 93.0
e 143 288 62.0
e 143 197 47.0
e 143 35 81.0
e 144 117 8.0
e 144 301 11.0
e 144 18 13.0
e 144 318 23.0
e 148 61 87.0
e 148 19 84.0
e 148 82 67.0
e 148 97 85.0
e 148 70 67.0
e 148 24 29.0
e 148 230 86.0
e 148 29 77.0
e 148 51 79.0
e 148 95 82.0
e 148 207 39.0
e 148 25 27.0
e 148 228 63.0
e 148 187 40.0
e 149 99 8.0
e 150 3 3.0
e 150 197 2.0
e 151 147 5.0
e 151 39 3.0
e 152 129 1.0
e 155 229 5.0
e 155 70 8.0
e 155 0 5.0
e 156 85 6.0
e 158 164 1.0
e 160 79 3.0
e 161 99 1.0
e 163 116 27.0
e 163 157 20.0
e 163 298 9.0
e 163 39 48.0
e 163 305 26.0
e 163 56 16.0
e 163 240 24.0
e 163 189 47.0
e 165 303 5.0
e 168 183 3.0
e 171 25 10.0
e 171 40 3.0
e 173 228 1.0
e 174 136 29.0
e 175 107 34.0
e 175 131 96.0
e 175 166 97.0
e 175 45 81.0
e 175 245 35.0
e 175 203 29.0
e 175 111 15.0
e 175 143 17.0
e 175 299 9.0
e 175 89 57.0
e 175 14 28.0
e 175 191 38.0
e 175 252 89.0
e 175 11 70.0
e 175 1 27.0
e 175 122 39.0
e 175 53 57.0
e 177 102 2.0
e 177 179 2.0
e 178 225 2.0
e 181 57 2.0
e 182 148 10.0
e 183 114 5.0
e 184 209 1.0
e 184 36 2.0
e 185 159 2.0
e 185 134 7.0
e 186 205 2.0
e 186 272 9.0
e 191 140 2.0
e 192 125 5.0
e 192 137 2.0
e 193 87 5.0
e 193 233 6.0
e 196 12 44.0
e 196 53 16.0
e 196 157 39.0
e 196 318 49.0
e 196 67 16.0
e 198 13 2.0
e 201 80 2.0
e 201 289 11.0
e 201 217 29.0
e 203 96 9.0
e 203 112 11.0
e 203 137 18.0
e 204 47 10.0
e 204 209 11.0
e 205 7 3.0
e 206 150 84.0
e 206 236 48.0
e 206 10 4.0
e 206 115 42.0
e 206 301 95.0
e 206 316 85.0
e 206 119 27.0
e 206 228 36.0
e 206 252 46.0
e 206 0 17.0
e 206 264 61.0
e 206 24 17.0
e 206 173 69.0
e 206 29 79.0
e 206 163 91.0
e 208 55 2.0
e 208 49 6.0
e 210 23 7.0
e 210 51 6.0
e 211 18 3.0
e 212 276 1.0
e 212 314 1.0
e 215 295 3.0
e 216 104 4.0
e 216 103 22.0
e 216 28 5.0
e 217 23 76.0
e 217 155 6.0
e 217 154 66.0
e 217 264 83.0
e 217 186 83.0
e 217 72 57.0
e 217 213 28.0
e 217 120 17.0
e 217 307 37.0
e 217 171 31.0
e 217 130 10.0
e 217 145 25.0
e 217 291 91.0
e 217 91 12.0
e 217 272 46.0
e 218 142 5.0
e 220 185 1.0
e 221 138 6.0
e 222 13 1.0
e 224 155 2.0
e 226 28 20.0
e 226 35 32.0
e 226 43 1.0
e 226 6 27.0
e 226 96 27.0
e 226 21 10.0
e 227 36 1.0
e 230 292 5.0
e 230 166 7.0
e 238 64 1.0
e 242 124 39.0
e 243 213 3.0
e 243 164 1.0
e 244 21 22.0
e 244 156 19.0
e 244 108 20.0
e 244 74 24.0
e 244 23 14.0
e 254 266 1.0
e 255 111 5.0
e 255 48 5.0
e 259 299 58.0
e 259 115 45.0
e 259 280 81.0
e 259 252 4.0
e 259 88 38.0
e 259 68 76.0
e 259 56 38.0
e 259 204 78.0
e 259 109 28.0
e 259 268 79.0
e 259 288 35.0
e 259 295 99.0
e 259 298 33.0
e 259 83 34.0
e 259 179 53.0
e 259 162 39.0
e 259 163 43.0
e 260 160 24.0
e 260 306 2.0
e 260 61 58.0
e 260 182 99.0
e 260 276 92.0
e 260 315 18.0
e 260 319 40.0
e 260 17 65.0
e 260 164 34.0
e 260 19 4.0
e 260 1 29.0
e 260 296 60.0
e 260 312 27.0
e 260 232 32.0
e 260 36 57.0
e 260 280 73.0
e 260 67 81.0
e 261 195 43.0
e 261 139 41.0
e 261 144 17.0
e 261 108 56.0
e 261 178 24.0
e 261 179 14.0
e 261 99 94.0
e 261 150 54.0
e 261 219 59.0
e 261 273 43.0
e 261 295 8.0
e 261 172 89.0
e 261 43 55.0
e 261 90 61.0
e 261 204 90.0
e 263 87 1.0
e 263 242 7.0
e 263 252 4.0
e 263 194 1.0
e 265 172 4.0
e 265 289 3.0
e 267 317 3.0
e 269 173 11.0
e 269 94 3.0
e 270 19 8.0
e 274 72 41.0
e 274 131 3.0
e 274 225 29.0
e 274 24 8.0
e 274 180 18.0
e 274 195 3.0
e 274 147 22.0
e 277 125 3.0
e 285 82 1.0
e 286 17 99.0
e 286 115 84.0
e 286 231 62.0
e 286 147 60.0
e 286 28 70.0
e 286 42 56.0
e 286 269 65.0
e 286 198 81.0
e 286 225 84.0
e 286 117 70.0
e 286 232 100.0
e 286 139 49.0
e 286 314 55.0
e 286 311 56.0
e 286 129 23.0
e 286 47 51.0
e 287 66 3.0
e 290 284 1.0
e 299 49 41.0
e 299 173 55.0
e 299 29 11.0
e 299 109 100.0
e 299 75 64.0
e 299 26 6.0
e 299 62 71.0
e 299 181 53.0
e 299 266 48.0
e 299 144 66.0
e 299 17 29.0
e 299 57 82.0
e 302 236 5.0
e 303 160 4.0
e 304 314 1.0
e 304 208 3.0
e 305 4 9.0
e 308 275 3.0
e 310 9 15.0
e 310 258 4.0
e 310 33 16.0
e 310 18 7.0
e 310 214 15.0
e 317 285 2.0
